NAME = SAfile180,
TOURSIZE = 180,
LENGTH = 1970,
10,97,156,2,18,136,90,167,75,163,74,78,159,153,123,124,55,169,177,104,145,140,5,125,58,180,176,103,96,170,164,54,28,73,33,64,171,83,41,155,128,77,70,23,37,36,66,72,82,85,60,14,168,89,118,44,24,137,62,143,146,127,126,101,26,94,48,81,112,65,100,174,173,175,22,6,132,150,149,107,35,84,130,9,148,59,161,151,117,49,99,119,71,87,86,56,157,108,144,133,25,88,102,129,154,27,141,31,53,76,131,67,69,105,110,111,114,39,3,4,32,113,57,142,98,91,1,11,63,38,50,61,15,147,40,46,138,42,21,8,93,79,162,165,160,92,95,109,30,51,47,178,7,120,115,152,139,43,52,135,158,116,172,45,12,16,29,68,17,19,106,166,179,121,80,13,134,122,20,34